2340 2064
2340 2122
2340 2190
2340 2212
2340 2220
2340 2536
2191 2053
2191 2138
2220 2064
2220 2122
2220 2190
2220 2212
489 355
2190 2064
2190 2122
2190 2536
2064 2122
2064 2212
223 170
2659 2004
2659 2091
2659 2585
3342 2901
3342 3197
3342 3344
3342 3419
2717 3250
2173 1936
2173 2091
3090 2750
3090 3250
1800 1107
1800 1195
1800 1491
1800 1559
1800 1721
1800 1780
1491 1107
1491 1559
1491 1721
3316 3344
3316 3419
1721 1107
1559 1107
2901 2781
2901 3344
3455 3590
566 400
566 456
2764 3222
382 355
2779 3207
1292 1647
2138 2053
456 400
2780 3419
2781 3419
